# Solution for model JobShopModel
# Objective value = 58
y[0,0,3] 0
y[0,0,5] 1
y[0,0,6] 0
y[0,1,0] 1
y[0,1,2] 0
y[0,1,4] 0
y[0,2,2] 0
y[0,2,3] 1
y[0,2,6] 0
y[1,0,2] 1
y[1,0,3] 0
y[1,0,4] 0
y[1,1,1] 0
y[1,1,4] 0
y[1,1,6] 1
y[1,2,0] 1
y[1,2,1] 0
y[1,2,2] 0
y[2,0,2] 0
y[2,0,4] 1
y[2,0,6] 0
y[2,1,1] 1
y[2,1,4] 0
y[2,1,5] 0
y[2,2,0] 1
y[2,2,2] 0
y[2,2,5] 0
y[3,0,2] 1
y[3,0,5] 0
y[3,0,6] 0
y[3,1,0] 0
y[3,1,3] 1
y[3,1,4] 0
y[3,2,2] 1
y[3,2,3] 0
y[3,2,6] 0
y[4,0,1] 0
y[4,0,4] 1
y[4,0,5] 0
y[4,1,3] 0
y[4,1,4] 1
y[4,1,5] 0
y[4,2,2] 0
y[4,2,4] 1
y[4,2,6] 0
y[5,0,0] 1
y[5,0,4] 0
y[5,0,6] 0
y[5,1,0] 0
y[5,1,3] 0
y[5,1,5] 1
y[5,2,0] 0
y[5,2,5] 0
y[5,2,6] 1
y[6,0,2] 0
y[6,0,3] 1
y[6,0,4] 0
y[6,1,1] 0
y[6,1,2] 1
y[6,1,5] 0
y[6,2,0] 0
y[6,2,1] 1
y[6,2,5] 0
y[7,0,1] 1
y[7,0,4] 0
y[7,0,5] 0
y[7,1,1] 0
y[7,1,4] 0
y[7,1,6] 1
y[7,2,0] 0
y[7,2,3] 0
y[7,2,5] 1
x[0,0,0,0] 0
x[0,0,0,1] 0
x[0,0,0,2] 1
x[0,0,1,0] 0
x[0,0,1,1] 1
x[0,0,1,2] 0
x[0,0,2,0] 1
x[0,0,2,1] 1
x[0,0,2,2] 1
x[0,0,3,0] 0
x[0,0,3,1] 0
x[0,0,3,2] 1
x[0,0,4,0] 0
x[0,0,4,1] 1
x[0,0,4,2] 1
x[0,0,5,0] 1
x[0,0,5,1] 0
x[0,0,5,2] 1
x[0,0,6,0] 1
x[0,0,6,1] 1
x[0,0,6,2] 0
x[0,0,7,0] 0
x[0,0,7,1] 1
x[0,0,7,2] 1
x[0,1,0,0] 0
x[0,1,0,1] 0
x[0,1,0,2] 1
x[0,1,1,0] 0
x[0,1,1,1] 0
x[0,1,1,2] 1
x[0,1,2,0] 0
x[0,1,2,1] 1
x[0,1,2,2] 0
x[0,1,3,0] 1
x[0,1,3,1] 1
x[0,1,3,2] 1
x[0,1,4,0] 1
x[0,1,4,1] 0
x[0,1,4,2] 1
x[0,1,5,0] 0
x[0,1,5,1] 1
x[0,1,5,2] 1
x[0,1,6,0] 1
x[0,1,6,1] 0
x[0,1,6,2] 0
x[0,1,7,0] 0
x[0,1,7,1] 0
x[0,1,7,2] 0
x[0,2,0,0] 0
x[0,2,0,1] 0
x[0,2,0,2] 0
x[0,2,1,0] 1
x[0,2,1,1] 0
x[0,2,1,2] 1
x[0,2,2,0] 0
x[0,2,2,1] 0
x[0,2,2,2] 0
x[0,2,3,0] 1
x[0,2,3,1] 0
x[0,2,3,2] 0
x[0,2,4,0] 0
x[0,2,4,1] 0
x[0,2,4,2] 0
x[0,2,5,0] 1
x[0,2,5,1] 1
x[0,2,5,2] 0
x[0,2,6,0] 0
x[0,2,6,1] 1
x[0,2,6,2] 0
x[0,2,7,0] 0
x[0,2,7,1] 0
x[0,2,7,2] 1
x[1,0,0,0] 0
x[1,0,0,1] 0
x[1,0,0,2] 0
x[1,0,1,0] 0
x[1,0,1,1] 0
x[1,0,1,2] 1
x[1,0,2,0] 1
x[1,0,2,1] 1
x[1,0,2,2] 1
x[1,0,3,0] 0
x[1,0,3,1] 0
x[1,0,3,2] 0
x[1,0,4,0] 1
x[1,0,4,1] 1
x[1,0,4,2] 0
x[1,0,5,0] 1
x[1,0,5,1] 1
x[1,0,5,2] 0
x[1,0,6,0] 1
x[1,0,6,1] 1
x[1,0,6,2] 0
x[1,0,7,0] 1
x[1,0,7,1] 0
x[1,0,7,2] 0
x[1,1,0,0] 0
x[1,1,0,1] 0
x[1,1,0,2] 0
x[1,1,1,0] 1
x[1,1,1,1] 0
x[1,1,1,2] 1
x[1,1,2,0] 1
x[1,1,2,1] 1
x[1,1,2,2] 0
x[1,1,3,0] 1
x[1,1,3,1] 1
x[1,1,3,2] 1
x[1,1,4,0] 0
x[1,1,4,1] 1
x[1,1,4,2] 1
x[1,1,5,0] 1
x[1,1,5,1] 0
x[1,1,5,2] 0
x[1,1,6,0] 1
x[1,1,6,1] 0
x[1,1,6,2] 0
x[1,1,7,0] 0
x[1,1,7,1] 1
x[1,1,7,2] 0
x[1,2,0,0] 0
x[1,2,0,1] 0
x[1,2,0,2] 0
x[1,2,1,0] 0
x[1,2,1,1] 0
x[1,2,1,2] 0
x[1,2,2,0] 0
x[1,2,2,1] 1
x[1,2,2,2] 0
x[1,2,3,0] 0
x[1,2,3,1] 0
x[1,2,3,2] 0
x[1,2,4,0] 1
x[1,2,4,1] 0
x[1,2,4,2] 1
x[1,2,5,0] 0
x[1,2,5,1] 1
x[1,2,5,2] 1
x[1,2,6,0] 0
x[1,2,6,1] 0
x[1,2,6,2] 0
x[1,2,7,0] 1
x[1,2,7,1] 1
x[1,2,7,2] 1
x[2,0,0,0] 0
x[2,0,0,1] 0
x[2,0,0,2] 0
x[2,0,1,0] 0
x[2,0,1,1] 0
x[2,0,1,2] 0
x[2,0,2,0] 0
x[2,0,2,1] 1
x[2,0,2,2] 0
x[2,0,3,0] 0
x[2,0,3,1] 1
x[2,0,3,2] 1
x[2,0,4,0] 1
x[2,0,4,1] 1
x[2,0,4,2] 1
x[2,0,5,0] 0
x[2,0,5,1] 0
x[2,0,5,2] 1
x[2,0,6,0] 1
x[2,0,6,1] 1
x[2,0,6,2] 0
x[2,0,7,0] 1
x[2,0,7,1] 0
x[2,0,7,2] 0
x[2,1,0,0] 0
x[2,1,0,1] 0
x[2,1,0,2] 0
x[2,1,1,0] 0
x[2,1,1,1] 0
x[2,1,1,2] 0
x[2,1,2,0] 0
x[2,1,2,1] 0
x[2,1,2,2] 1
x[2,1,3,0] 0
x[2,1,3,1] 1
x[2,1,3,2] 0
x[2,1,4,0] 0
x[2,1,4,1] 1
x[2,1,4,2] 0
x[2,1,5,0] 0
x[2,1,5,1] 1
x[2,1,5,2] 0
x[2,1,6,0] 0
x[2,1,6,1] 1
x[2,1,6,2] 1
x[2,1,7,0] 1
x[2,1,7,1] 1
x[2,1,7,2] 0
x[2,2,0,0] 0
x[2,2,0,1] 0
x[2,2,0,2] 0
x[2,2,1,0] 0
x[2,2,1,1] 0
x[2,2,1,2] 0
x[2,2,2,0] 1
x[2,2,2,1] 0
x[2,2,2,2] 0
x[2,2,3,0] 0
x[2,2,3,1] 0
x[2,2,3,2] 0
x[2,2,4,0] 1
x[2,2,4,1] 0
x[2,2,4,2] 0
x[2,2,5,0] 0
x[2,2,5,1] 0
x[2,2,5,2] 1
x[2,2,6,0] 0
x[2,2,6,1] 1
x[2,2,6,2] 1
x[2,2,7,0] 1
x[2,2,7,1] 0
x[2,2,7,2] 0
x[3,0,0,0] 0
x[3,0,0,1] 0
x[3,0,0,2] 0
x[3,0,1,0] 0
x[3,0,1,1] 0
x[3,0,1,2] 0
x[3,0,2,0] 0
x[3,0,2,1] 0
x[3,0,2,2] 0
x[3,0,3,0] 0
x[3,0,3,1] 0
x[3,0,3,2] 1
x[3,0,4,0] 0
x[3,0,4,1] 1
x[3,0,4,2] 1
x[3,0,5,0] 1
x[3,0,5,1] 0
x[3,0,5,2] 0
x[3,0,6,0] 1
x[3,0,6,1] 1
x[3,0,6,2] 1
x[3,0,7,0] 1
x[3,0,7,1] 1
x[3,0,7,2] 0
x[3,1,0,0] 0
x[3,1,0,1] 0
x[3,1,0,2] 0
x[3,1,1,0] 0
x[3,1,1,1] 0
x[3,1,1,2] 0
x[3,1,2,0] 0
x[3,1,2,1] 0
x[3,1,2,2] 0
x[3,1,3,0] 0
x[3,1,3,1] 0
x[3,1,3,2] 0
x[3,1,4,0] 0
x[3,1,4,1] 1
x[3,1,4,2] 0
x[3,1,5,0] 1
x[3,1,5,1] 1
x[3,1,5,2] 1
x[3,1,6,0] 1
x[3,1,6,1] 0
x[3,1,6,2] 0
x[3,1,7,0] 0
x[3,1,7,1] 0
x[3,1,7,2] 1
x[3,2,0,0] 0
x[3,2,0,1] 0
x[3,2,0,2] 0
x[3,2,1,0] 0
x[3,2,1,1] 0
x[3,2,1,2] 0
x[3,2,2,0] 0
x[3,2,2,1] 0
x[3,2,2,2] 0
x[3,2,3,0] 0
x[3,2,3,1] 1
x[3,2,3,2] 0
x[3,2,4,0] 0
x[3,2,4,1] 0
x[3,2,4,2] 1
x[3,2,5,0] 0
x[3,2,5,1] 0
x[3,2,5,2] 0
x[3,2,6,0] 1
x[3,2,6,1] 1
x[3,2,6,2] 0
x[3,2,7,0] 0
x[3,2,7,1] 0
x[3,2,7,2] 0
x[4,0,0,0] 0
x[4,0,0,1] 0
x[4,0,0,2] 0
x[4,0,1,0] 0
x[4,0,1,1] 0
x[4,0,1,2] 0
x[4,0,2,0] 0
x[4,0,2,1] 0
x[4,0,2,2] 0
x[4,0,3,0] 0
x[4,0,3,1] 0
x[4,0,3,2] 0
x[4,0,4,0] 0
x[4,0,4,1] 1
x[4,0,4,2] 1
x[4,0,5,0] 1
x[4,0,5,1] 0
x[4,0,5,2] 1
x[4,0,6,0] 0
x[4,0,6,1] 1
x[4,0,6,2] 0
x[4,0,7,0] 1
x[4,0,7,1] 1
x[4,0,7,2] 0
x[4,1,0,0] 0
x[4,1,0,1] 0
x[4,1,0,2] 0
x[4,1,1,0] 0
x[4,1,1,1] 0
x[4,1,1,2] 0
x[4,1,2,0] 0
x[4,1,2,1] 0
x[4,1,2,2] 0
x[4,1,3,0] 0
x[4,1,3,1] 0
x[4,1,3,2] 0
x[4,1,4,0] 0
x[4,1,4,1] 0
x[4,1,4,2] 0
x[4,1,5,0] 0
x[4,1,5,1] 1
x[4,1,5,2] 0
x[4,1,6,0] 0
x[4,1,6,1] 0
x[4,1,6,2] 0
x[4,1,7,0] 0
x[4,1,7,1] 0
x[4,1,7,2] 0
x[4,2,0,0] 0
x[4,2,0,1] 0
x[4,2,0,2] 0
x[4,2,1,0] 0
x[4,2,1,1] 0
x[4,2,1,2] 0
x[4,2,2,0] 0
x[4,2,2,1] 0
x[4,2,2,2] 0
x[4,2,3,0] 0
x[4,2,3,1] 0
x[4,2,3,2] 0
x[4,2,4,0] 0
x[4,2,4,1] 1
x[4,2,4,2] 0
x[4,2,5,0] 0
x[4,2,5,1] 0
x[4,2,5,2] 1
x[4,2,6,0] 0
x[4,2,6,1] 0
x[4,2,6,2] 0
x[4,2,7,0] 1
x[4,2,7,1] 1
x[4,2,7,2] 0
x[5,0,0,0] 0
x[5,0,0,1] 0
x[5,0,0,2] 0
x[5,0,1,0] 0
x[5,0,1,1] 0
x[5,0,1,2] 0
x[5,0,2,0] 0
x[5,0,2,1] 0
x[5,0,2,2] 0
x[5,0,3,0] 0
x[5,0,3,1] 0
x[5,0,3,2] 0
x[5,0,4,0] 0
x[5,0,4,1] 0
x[5,0,4,2] 0
x[5,0,5,0] 0
x[5,0,5,1] 1
x[5,0,5,2] 1
x[5,0,6,0] 0
x[5,0,6,1] 0
x[5,0,6,2] 0
x[5,0,7,0] 1
x[5,0,7,1] 0
x[5,0,7,2] 0
x[5,1,0,0] 0
x[5,1,0,1] 0
x[5,1,0,2] 0
x[5,1,1,0] 0
x[5,1,1,1] 0
x[5,1,1,2] 0
x[5,1,2,0] 0
x[5,1,2,1] 0
x[5,1,2,2] 0
x[5,1,3,0] 0
x[5,1,3,1] 0
x[5,1,3,2] 0
x[5,1,4,0] 0
x[5,1,4,1] 0
x[5,1,4,2] 0
x[5,1,5,0] 0
x[5,1,5,1] 0
x[5,1,5,2] 1
x[5,1,6,0] 1
x[5,1,6,1] 0
x[5,1,6,2] 0
x[5,1,7,0] 0
x[5,1,7,1] 0
x[5,1,7,2] 1
x[5,2,0,0] 0
x[5,2,0,1] 0
x[5,2,0,2] 0
x[5,2,1,0] 0
x[5,2,1,1] 0
x[5,2,1,2] 0
x[5,2,2,0] 0
x[5,2,2,1] 0
x[5,2,2,2] 0
x[5,2,3,0] 0
x[5,2,3,1] 0
x[5,2,3,2] 0
x[5,2,4,0] 0
x[5,2,4,1] 0
x[5,2,4,2] 0
x[5,2,5,0] 0
x[5,2,5,1] 0
x[5,2,5,2] 0
x[5,2,6,0] 0
x[5,2,6,1] 0
x[5,2,6,2] 1
x[5,2,7,0] 1
x[5,2,7,1] 1
x[5,2,7,2] 1
x[6,0,0,0] 0
x[6,0,0,1] 0
x[6,0,0,2] 0
x[6,0,1,0] 0
x[6,0,1,1] 0
x[6,0,1,2] 0
x[6,0,2,0] 0
x[6,0,2,1] 0
x[6,0,2,2] 0
x[6,0,3,0] 0
x[6,0,3,1] 0
x[6,0,3,2] 0
x[6,0,4,0] 0
x[6,0,4,1] 0
x[6,0,4,2] 0
x[6,0,5,0] 0
x[6,0,5,1] 0
x[6,0,5,2] 0
x[6,0,6,0] 0
x[6,0,6,1] 0
x[6,0,6,2] 0
x[6,0,7,0] 0
x[6,0,7,1] 1
x[6,0,7,2] 1
x[6,1,0,0] 0
x[6,1,0,1] 0
x[6,1,0,2] 0
x[6,1,1,0] 0
x[6,1,1,1] 0
x[6,1,1,2] 0
x[6,1,2,0] 0
x[6,1,2,1] 0
x[6,1,2,2] 0
x[6,1,3,0] 0
x[6,1,3,1] 0
x[6,1,3,2] 0
x[6,1,4,0] 0
x[6,1,4,1] 0
x[6,1,4,2] 0
x[6,1,5,0] 0
x[6,1,5,1] 0
x[6,1,5,2] 0
x[6,1,6,0] 1
x[6,1,6,1] 0
x[6,1,6,2] 0
x[6,1,7,0] 1
x[6,1,7,1] 1
x[6,1,7,2] 0
x[6,2,0,0] 0
x[6,2,0,1] 0
x[6,2,0,2] 0
x[6,2,1,0] 0
x[6,2,1,1] 0
x[6,2,1,2] 0
x[6,2,2,0] 0
x[6,2,2,1] 0
x[6,2,2,2] 0
x[6,2,3,0] 0
x[6,2,3,1] 0
x[6,2,3,2] 0
x[6,2,4,0] 0
x[6,2,4,1] 0
x[6,2,4,2] 0
x[6,2,5,0] 0
x[6,2,5,1] 0
x[6,2,5,2] 0
x[6,2,6,0] 0
x[6,2,6,1] 1
x[6,2,6,2] 0
x[6,2,7,0] 1
x[6,2,7,1] 1
x[6,2,7,2] 0
x[7,0,0,0] 0
x[7,0,0,1] 0
x[7,0,0,2] 0
x[7,0,1,0] 0
x[7,0,1,1] 0
x[7,0,1,2] 0
x[7,0,2,0] 0
x[7,0,2,1] 0
x[7,0,2,2] 0
x[7,0,3,0] 0
x[7,0,3,1] 0
x[7,0,3,2] 0
x[7,0,4,0] 0
x[7,0,4,1] 0
x[7,0,4,2] 0
x[7,0,5,0] 0
x[7,0,5,1] 0
x[7,0,5,2] 0
x[7,0,6,0] 0
x[7,0,6,1] 0
x[7,0,6,2] 0
x[7,0,7,0] 0
x[7,0,7,1] 1
x[7,0,7,2] 1
x[7,1,0,0] 0
x[7,1,0,1] 0
x[7,1,0,2] 0
x[7,1,1,0] 0
x[7,1,1,1] 0
x[7,1,1,2] 0
x[7,1,2,0] 0
x[7,1,2,1] 0
x[7,1,2,2] 0
x[7,1,3,0] 0
x[7,1,3,1] 0
x[7,1,3,2] 0
x[7,1,4,0] 0
x[7,1,4,1] 0
x[7,1,4,2] 0
x[7,1,5,0] 0
x[7,1,5,1] 0
x[7,1,5,2] 0
x[7,1,6,0] 0
x[7,1,6,1] 0
x[7,1,6,2] 0
x[7,1,7,0] 0
x[7,1,7,1] 0
x[7,1,7,2] 0
x[7,2,0,0] 0
x[7,2,0,1] 0
x[7,2,0,2] 0
x[7,2,1,0] 0
x[7,2,1,1] 0
x[7,2,1,2] 0
x[7,2,2,0] 0
x[7,2,2,1] 0
x[7,2,2,2] 0
x[7,2,3,0] 0
x[7,2,3,1] 0
x[7,2,3,2] 0
x[7,2,4,0] 0
x[7,2,4,1] 0
x[7,2,4,2] 0
x[7,2,5,0] 0
x[7,2,5,1] 0
x[7,2,5,2] 0
x[7,2,6,0] 0
x[7,2,6,1] 0
x[7,2,6,2] 0
x[7,2,7,0] 0
x[7,2,7,1] 0
x[7,2,7,2] 0
s[0,0,3] 0
s[0,0,5] 10
s[0,0,6] 0
s[0,1,0] 6
s[0,1,2] 0
s[0,1,4] 0
s[0,2,2] 0
s[0,2,3] 0
s[0,2,6] 0
s[1,0,2] 11
s[1,0,3] 0
s[1,0,4] 0
s[1,1,1] 0
s[1,1,4] 0
s[1,1,6] 7
s[1,2,0] 1
s[1,2,1] 0
s[1,2,2] 0
s[2,0,2] 0
s[2,0,4] 25
s[2,0,6] 0
s[2,1,1] 22
s[2,1,4] 0
s[2,1,5] 0
s[2,2,0] 15
s[2,2,2] 0
s[2,2,5] 0
s[3,0,2] 25
s[3,0,5] 0
s[3,0,6] 0
s[3,1,0] 0
s[3,1,3] 20
s[3,1,4] 0
s[3,2,2] 15
s[3,2,3] 0
s[3,2,6] 0
s[4,0,1] 0
s[4,0,4] 17
s[4,0,5] 0
s[4,1,3] 0
s[4,1,4] 2
s[4,1,5] 0
s[4,2,2] 0
s[4,2,4] 10
s[4,2,6] 0
s[5,0,0] 26
s[5,0,4] 0
s[5,0,6] 0
s[5,1,0] 0
s[5,1,3] 0
s[5,1,5] 22
s[5,2,0] 0
s[5,2,5] 0
s[5,2,6] 20
s[6,0,2] 0
s[6,0,3] 13
s[6,0,4] 0
s[6,1,1] 0
s[6,1,2] 2
s[6,1,5] 0
s[6,2,0] 0
s[6,2,1] 11
s[6,2,5] 0
s[7,0,1] 5
s[7,0,4] 0
s[7,0,5] 0
s[7,1,1] 0
s[7,1,4] 0
s[7,1,6] 2
s[7,2,0] 0
s[7,2,3] 0
s[7,2,5] 2
Z_FO 58
C721 0
C722 0
C723 0
C724 1
C725 0
C726 0
C727 0
C728 1
C729 0
C730 1
C731 0
C732 0
C733 0
C734 1
C735 0
C736 1
C737 0
C738 0
C739 0
C740 0
C741 0
C742 0
C743 0
C744 0
